p tdp 57 56
8 52
49 10
36 1
46 4
2 16
29 45
21 57
40 39
14 23
32 11
54 18
6 9
1 42
39 4
42 45
19 5
7 30
23 27
55 26
47 51
27 37
21 17
2 1
25 35
26 56
13 41
22 56
9 48
44 28
57 38
12 33
7 56
50 34
52 36
49 43
25 41
29 40
56 48
54 3
14 17
26 37
5 10
47 34
39 15
48 31
24 20
19 3
27 8
18 33
19 44
24 25
51 11
5 47
53 19
4 51
57 13
